16
0 8 8
1 7 6
1 11 5
2 5 5
2 13 10
3 5 3
3 9 8
3 10 2
4 12 9
5 0 3
5 1 4
5 11 3
6 11 10
7 15 7
8 0 5
8 2 1
8 3 3
8 5 10
8 12 9
9 5 3
9 6 2
9 12 5
10 5 7
10 11 2
10 14 10
11 1 7
11 2 6
11 5 3
12 4 9
13 1 1
13 2 1
13 4 1
13 9 5
13 12 7
14 0 6
14 7 2
14 8 8
14 12 8
15 6 9
15 8 3
15 11 8
